NAME : X-n139-k10
COMMENT : "Generated by Uchoa, Pecin, Pessoa, Poggi, Subramanian, and Vidal (2013)"
TYPE : CVRP
DIMENSION : 139
EDGE_WEIGHT_TYPE : EUC_2D
EDGE_WEIGHT_FORMAT : 
CAPACITY : 106
DISTANCE : 1.79769e+308
SERVICE_TIME : 0
NODE_COORD_SECTION
1 500 500
2 645 7
3 720 867
4 513 499
5 208 766
6 976 884
7 991 864
8 596 532
9 765 632
10 270 818
11 223 552
12 871 193
13 825 816
14 128 518
15 802 281
16 786 635
17 435 675
18 976 204
19 563 43
20 870 774
21 348 458
22 566 113
23 295 969
24 229 790
25 515 805
26 482 998
27 241 830
28 47 633
29 594 244
30 635 626
31 597 538
32 86 516
33 444 697
34 763 281
35 12 649
36 187 417
37 630 975
38 934 263
39 88 855
40 768 582
41 916 277
42 40 387
43 881 490
44 325 20
45 771 700
46 308 482
47 397 30
48 934 7
49 869 723
50 788 896
51 100 591
52 746 587
53 584 721
54 859 990
55 403 428
56 493 63
57 496 458
58 728 641
59 174 440
60 986 511
61 887 589
62 931 743
63 234 663
64 608 268
65 239 159
66 832 704
67 857 776
68 828 438
69 744 105
70 122 949
71 270 596
72 687 391
73 790 753
74 323 417
75 152 585
76 308 261
77 472 319
78 282 64
79 138 342
80 391 452
81 87 413
82 676 362
83 314 108
84 713 127
85 638 532
86 507 797
87 720 264
88 630 720
89 326 566
90 610 371
91 847 833
92 576 429
93 58 295
94 145 103
95 141 976
96 564 716
97 946 889
98 100 526
99 503 496
100 684 811
101 800 409
102 794 190
103 784 339
104 603 208
105 637 306
106 369 159
107 288 88
108 70 168
109 177 924
110 300 515
111 275 468
112 408 217
113 343 995
114 889 853
115 455 846
116 20 645
117 760 141
118 763 785
119 494 727
120 889 11
121 254 378
122 381 438
123 508 257
124 70 637
125 361 611
126 529 957
127 570 727
128 204 110
129 813 135
130 820 999
131 201 62
132 5 787
133 48 135
134 196 237
135 881 333
136 767 284
137 709 189
138 427 864
139 538 248
PICKUP_AND_DELIVERY_SECTION
1 0 0 0 0 0 0
2 0 0 0 0 0 10
3 0 0 0 0 0 10
4 0 0 0 0 0 5
5 0 0 0 0 0 9
6 0 0 0 0 0 8
7 0 0 0 0 0 5
8 0 0 0 0 0 5
9 0 0 0 0 0 8
10 0 0 0 0 0 6
11 0 0 0 0 8 0
12 0 0 0 0 0 10
13 0 0 0 0 0 9
14 0 0 0 0 0 9
15 0 0 0 0 0 8
16 0 0 0 0 0 9
17 0 0 0 0 0 5
18 0 0 0 0 0 10
19 0 0 0 0 0 7
20 0 0 0 0 0 6
21 0 0 0 0 9 0
22 0 0 0 0 0 10
23 0 0 0 0 0 6
24 0 0 0 0 0 10
25 0 0 0 0 0 5
26 0 0 0 0 0 8
27 0 0 0 0 0 6
28 0 0 0 0 0 8
29 0 0 0 0 0 5
30 0 0 0 0 0 6
31 0 0 0 0 5 0
32 0 0 0 0 0 7
33 0 0 0 0 0 10
34 0 0 0 0 0 9
35 0 0 0 0 0 7
36 0 0 0 0 0 5
37 0 0 0 0 0 9
38 0 0 0 0 0 6
39 0 0 0 0 0 8
40 0 0 0 0 0 9
41 0 0 0 0 5 0
42 0 0 0 0 0 9
43 0 0 0 0 0 9
44 0 0 0 0 0 5
45 0 0 0 0 0 5
46 0 0 0 0 0 6
47 0 0 0 0 0 7
48 0 0 0 0 0 6
49 0 0 0 0 0 9
50 0 0 0 0 0 5
51 0 0 0 0 8 0
52 0 0 0 0 0 9
53 0 0 0 0 0 8
54 0 0 0 0 0 8
55 0 0 0 0 0 7
56 0 0 0 0 0 9
57 0 0 0 0 0 9
58 0 0 0 0 0 7
59 0 0 0 0 0 10
60 0 0 0 0 0 6
61 0 0 0 0 8 0
62 0 0 0 0 0 9
63 0 0 0 0 0 9
64 0 0 0 0 0 5
65 0 0 0 0 0 6
66 0 0 0 0 0 10
67 0 0 0 0 0 10
68 0 0 0 0 0 8
69 0 0 0 0 0 5
70 0 0 0 0 0 7
71 0 0 0 0 5 0
72 0 0 0 0 0 9
73 0 0 0 0 0 5
74 0 0 0 0 0 5
75 0 0 0 0 0 9
76 0 0 0 0 0 10
77 0 0 0 0 0 9
78 0 0 0 0 0 6
79 0 0 0 0 0 10
80 0 0 0 0 0 8
81 0 0 0 0 10 0
82 0 0 0 0 0 8
83 0 0 0 0 0 8
84 0 0 0 0 0 6
85 0 0 0 0 0 9
86 0 0 0 0 0 5
87 0 0 0 0 0 6
88 0 0 0 0 0 7
89 0 0 0 0 0 8
90 0 0 0 0 0 9
91 0 0 0 0 7 0
92 0 0 0 0 0 7
93 0 0 0 0 0 5
94 0 0 0 0 0 8
95 0 0 0 0 0 8
96 0 0 0 0 0 9
97 0 0 0 0 0 6
98 0 0 0 0 0 9
99 0 0 0 0 0 10
100 0 0 0 0 0 7
101 0 0 0 0 5 0
102 0 0 0 0 0 9
103 0 0 0 0 0 5
104 0 0 0 0 0 10
105 0 0 0 0 0 8
106 0 0 0 0 0 8
107 0 0 0 0 0 9
108 0 0 0 0 0 5
109 0 0 0 0 0 6
110 0 0 0 0 0 8
111 0 0 0 0 10 0
112 0 0 0 0 0 9
113 0 0 0 0 0 9
114 0 0 0 0 0 5
115 0 0 0 0 0 8
116 0 0 0 0 0 5
117 0 0 0 0 0 10
118 0 0 0 0 0 6
119 0 0 0 0 0 9
120 0 0 0 0 0 9
121 0 0 0 0 5 0
122 0 0 0 0 0 10
123 0 0 0 0 0 6
124 0 0 0 0 0 8
125 0 0 0 0 0 10
126 0 0 0 0 0 8
127 0 0 0 0 0 5
128 0 0 0 0 0 7
129 0 0 0 0 0 8
130 0 0 0 0 0 8
131 0 0 0 0 7 0
132 0 0 0 0 0 9
133 0 0 0 0 0 5
134 0 0 0 0 0 5
135 0 0 0 0 0 8
136 0 0 0 0 0 8
137 0 0 0 0 0 6
138 0 0 0 0 0 6
139 0 0 0 0 0 10
